(set-logic HORN)

(declare-datatypes ((Nat_0 0)) (((Z_1 ) (Z_2  (unS_0 Nat_0)))))
(declare-datatypes ((list_0 0)) (((nil_0 ) (cons_0  (head_0 Nat_0) (tail_0 list_0)))))

(declare-fun |diseqNat_0| ( Nat_0 Nat_0 ) Bool)
(declare-fun |diseqlist_0| ( list_0 list_0 ) Bool)
(declare-fun |rev_0| ( list_0 list_0 ) Bool)
(declare-fun |x_0| ( list_0 list_0 list_0 ) Bool)

(assert
  (forall ( (A Nat_0) (B Nat_0) (v_2 Nat_0) ) 
    (=>
      (and
        (and (= A (Z_2 B)) (= v_2 Z_1))
      )
      (diseqNat_0 v_2 A)
    )
  )
)
(assert
  (forall ( (A Nat_0) (B Nat_0) (v_2 Nat_0) ) 
    (=>
      (and
        (and (= A (Z_2 B)) (= v_2 Z_1))
      )
      (diseqNat_0 A v_2)
    )
  )
)
(assert
  (forall ( (A Nat_0) (B Nat_0) (C Nat_0) (D Nat_0) ) 
    (=>
      (and
        (diseqNat_0 C D)
        (and (= A (Z_2 D)) (= B (Z_2 C)))
      )
      (diseqNat_0 B A)
    )
  )
)
(assert
  (forall ( (A list_0) (B Nat_0) (C list_0) (v_3 list_0) ) 
    (=>
      (and
        (and (= A (cons_0 B C)) (= v_3 nil_0))
      )
      (diseqlist_0 v_3 A)
    )
  )
)
(assert
  (forall ( (A list_0) (B Nat_0) (C list_0) (v_3 list_0) ) 
    (=>
      (and
        (and (= A (cons_0 B C)) (= v_3 nil_0))
      )
      (diseqlist_0 A v_3)
    )
  )
)
(assert
  (forall ( (A list_0) (B list_0) (C Nat_0) (D list_0) (E Nat_0) (F list_0) ) 
    (=>
      (and
        (diseqNat_0 C E)
        (and (= A (cons_0 E F)) (= B (cons_0 C D)))
      )
      (diseqlist_0 B A)
    )
  )
)
(assert
  (forall ( (A list_0) (B list_0) (C Nat_0) (D list_0) (E Nat_0) (F list_0) ) 
    (=>
      (and
        (diseqlist_0 D F)
        (and (= A (cons_0 E F)) (= B (cons_0 C D)))
      )
      (diseqlist_0 B A)
    )
  )
)
(assert
  (forall ( (A list_0) (B list_0) (C list_0) (D Nat_0) (E list_0) (F list_0) ) 
    (=>
      (and
        (x_0 C E F)
        (and (= A (cons_0 D E)) (= B (cons_0 D C)))
      )
      (x_0 B A F)
    )
  )
)
(assert
  (forall ( (A list_0) (v_1 list_0) (v_2 list_0) ) 
    (=>
      (and
        (and true (= v_1 nil_0) (= v_2 A))
      )
      (x_0 A v_1 v_2)
    )
  )
)
(assert
  (forall ( (A list_0) (B list_0) (C list_0) (D list_0) (E Nat_0) (F list_0) ) 
    (=>
      (and
        (x_0 C D A)
        (rev_0 D F)
        (and (= A (cons_0 E nil_0)) (= B (cons_0 E F)))
      )
      (rev_0 C B)
    )
  )
)
(assert
  (forall ( (v_0 list_0) (v_1 list_0) ) 
    (=>
      (and
        (and true (= v_0 nil_0) (= v_1 nil_0))
      )
      (rev_0 v_0 v_1)
    )
  )
)
(assert
  (forall ( (A list_0) (B list_0) (C list_0) (D list_0) (E list_0) (F list_0) (G list_0) (H list_0) (I list_0) (J list_0) ) 
    (=>
      (and
        (rev_0 F J)
        (x_0 H E G)
        (rev_0 G F)
        (diseqlist_0 C H)
        (x_0 A I J)
        (rev_0 B A)
        (rev_0 C B)
        (rev_0 D I)
        (rev_0 E D)
        true
      )
      false
    )
  )
)

(check-sat)
(exit)
